2x3_dual.sol
# Solution for model primal
# Objective value = 240.25
C0 0.625
C1 0.25
C2 1
C3 0
C4 0
C5 1
C6 3.25
C7 2
C8 7
C9 0
C10 0
C11 2
C12 7
C13 2
